(set-logic HORN)
(set-info :source |
    Benchmark: C_VC
    Output by Princess (http://www.philipp.ruemmer.org/princess.shtml)
|)
(set-info :status sat)
;===============================================================================
; Encoding of Heap sorts and operations
;-------------------------------------------------------------------------------
(define-sort Addr() Int)
(declare-datatypes ((AddrRange 0))
                   (((AddrRange (AddrRangeStart Addr) (AddrRangeSize Int)))))

(declare-datatypes ((HeapObject 0))
                   (((O_Int (getInt Int)) (O_UInt (getUInt Int)) (O_Addr (getAddr Addr)) (defObj))))
(declare-datatypes ((BatchAllocResHeap 0) (AllocResHeap 0) (Heap 0))
                   (((BatchAllocResHeap   (newBatchHeap Heap) (newAddrRange AddrRange)))
                   ((AllocResHeap   (newHeap Heap) (newAddr Addr)))
                    ((HeapCtor (HeapSize Int)
                               (HeapContents (Array Addr HeapObject))))))
(define-fun nullAddr  () Addr 0)
(define-fun validHeap     ((h Heap) (p Addr)) Bool
  (and (>= (HeapSize h) p) (> p 0)))
(define-fun emptyHeap () Heap (
  HeapCtor 0 (( as const (Array Addr HeapObject)) defObj)))
(define-fun readHeap ((h Heap) (p Addr)) HeapObject
  (ite (validHeap h p)
       (select (HeapContents h) p)
       defObj))
(define-fun writeHeap ((h Heap) (p Addr) (o HeapObject)) Heap
  (ite (validHeap h p)
       (HeapCtor (HeapSize h) (store (HeapContents h) p o))
       h))
(define-fun allocHeap   ((h Heap) (o HeapObject)) AllocResHeap
  (AllocResHeap (HeapCtor (+ 1 (HeapSize h))
                    (store (HeapContents h) (+ 1 (HeapSize h)) o))
          (+ 1 (HeapSize h))))
(define-fun Heap-eq     ((h1 Heap) (h2 Heap)) Bool
  (forall ((p Addr))
          (and (= (validHeap h1 p) (validHeap h2 p))
               (= (readHeap h1 p) (readHeap h2 p)))))
(define-fun nthAddrRange((ar AddrRange) (n Int)) Addr
  (ite (and (>= n 0) (< n (AddrRangeSize ar)))
       (+ (AddrRangeStart ar) n)
       nullAddr))
(define-fun withinHeap ((ar AddrRange ) (p Addr)) Bool
  (and (>= p (AddrRangeStart ar)) (< p (+ (AddrRangeStart ar) (AddrRangeSize ar)))))

(declare-fun batchAllocHeap     (Heap Heap HeapObject Int Int) Bool)
(declare-fun batchAllocPostHeap (Heap Heap HeapObject Int) Bool)

(assert (forall ((h1 Heap) (h2 Heap) (o HeapObject) (n1 Int) (n2 Int))
                (=> (and (> n2 0) (batchAllocHeap h1 h2 o n1 n2))
                   (batchAllocHeap h1 (newHeap (allocHeap h2 o)) o n1 (- n2 1)))))
(assert (forall ((h1 Heap) (h2 Heap) (o HeapObject) (n1 Int) (n2 Int))
                (=> (and (<= n2 0) (batchAllocHeap h1 h2 o n1 n2))
                   (batchAllocPostHeap h1 h2 o n1))))

(declare-fun batchWriteHeap     (Heap Heap Addr Addr HeapObject Int Int) Bool)
(declare-fun batchWritePostHeap (Heap Heap Addr HeapObject Int) Bool)

(assert (forall ((h1 Heap) (h2 Heap) (a1 Addr) (a2 Addr) (o HeapObject) (n1 Int) (n2 Int))
                (=> (and (> n2 0) (batchWriteHeap h1 h2 a1 a2 o n1 n2))
                   (batchWriteHeap h1 (writeHeap h2 a2 o) a1 (+ a2 1) o n1 (- n2 1)))))
(assert (forall ((h1 Heap) (h2 Heap) (a1 Addr) (a2 Addr) (o HeapObject) (n1 Int) (n2 Int))
                (=> (and (<= n2 0) (batchWriteHeap h1 h2 a1 a2 o n1 n2))
                   (batchWritePostHeap h1 h2 a1 o n1))))

;===============================================================================
(declare-fun inv_main2 (Heap Int) Bool)
(declare-fun inv_main26 (Heap Int Int Int AddrRange Int Int) Bool)
(declare-fun inv_main30 (Heap Int Int Int AddrRange Int Int) Bool)
(declare-fun inv_main31 (Heap Int Int Int AddrRange Int Int) Bool)
(declare-fun inv_main32 (Heap Int Int Int AddrRange Int Int) Bool)
(declare-fun inv_main33 (Heap Int Int Int AddrRange Int Int Int) Bool)
(declare-fun inv_main35 (Heap Int Int Int AddrRange Int Int) Bool)
(declare-fun inv_main39 (Heap Int Int Int AddrRange Int Int) Bool)
(declare-fun inv_main40 (Heap Int Int Int AddrRange Int Int) Bool)
(declare-fun inv_main41 (Heap Int Int Int AddrRange Int Int) Bool)
(declare-fun inv_main42 (Heap Int Int Int AddrRange Int Int Int) Bool)
(declare-fun inv_main44 (Heap Int Int Int AddrRange Int Int) Bool)
(declare-fun inv_main47 (Heap Int Int Int AddrRange Int Int Int) Bool)
(assert (inv_main2 emptyHeap 0))
(assert (forall ((var0 Int) (var1 Int) (var2 AddrRange) (var3 Int) (var4 Int) (var5 Int) (var6 Heap)) (or (not (and (inv_main30 var6 var5 var4 var3 var2 var1 var0) (is-O_Int (readHeap var6 (nthAddrRange var2 (+ (* 2 var3) (* (- 1) 1))))))) (inv_main33 var6 var5 var4 var3 var2 var1 var0 (getInt (readHeap var6 (nthAddrRange var2 (+ (* 2 var3) (* (- 1) 1)))))))))
(assert (forall ((var0 Int) (var1 Int) (var2 AddrRange) (var3 Int) (var4 Int) (var5 Int) (var6 Heap)) (or (not (and (inv_main39 var6 var5 var4 var3 var2 var1 var0) (is-O_Int (readHeap var6 (nthAddrRange var2 (+ (* 2 var3) (* (- 1) 2))))))) (inv_main42 var6 var5 var4 var3 var2 var1 var0 (getInt (readHeap var6 (nthAddrRange var2 (+ (* 2 var3) (* (- 1) 2)))))))))
(assert (forall ((var0 Int) (var1 Int) (var2 AddrRange) (var3 Int) (var4 Int) (var5 Int) (var6 Heap) (var7 Int)) (or (not (and (and (and (and (and (and (inv_main26 var6 var5 var4 var3 var2 var1 var0) (<= 0 (+ var7 (* (- 1) var3)))) (or (not (<= 0 (+ (* (- 1) (+ var5 (* (- 2) var7))) (* (- 1) 1)))) (<= 0 (+ (* (- 1) var5) (* (- 1) 1))))) (or (not (<= 0 (+ (+ (* (- 2) var7) var5) (* (- 1) 1)))) (<= 0 (+ var5 (* (- 1) 1))))) (<= 0 (+ (+ (* 1 (+ var5 (* (- 2) var7))) 2) (* (- 1) 1)))) (<= 0 (+ (+ (* (- 1) (+ var5 (* (- 2) var7))) 2) (* (- 1) 1)))) (<= 0 (+ var1 (* (- 1) var4))))) (inv_main31 var6 var5 var4 var3 var2 var1 var0))))
(assert (forall ((var0 Int) (var1 Int) (var2 AddrRange) (var3 Int) (var4 Int) (var5 Int) (var6 Heap)) (or (not (and (and (inv_main40 var6 var5 var4 var3 var2 var1 var0) (is-O_Int (readHeap var6 (nthAddrRange var2 (+ (* 2 var3) (* (- 1) 1)))))) (is-O_Int (readHeap var6 (nthAddrRange var2 (+ (* 2 var3) (* (- 1) 1))))))) (inv_main39 (writeHeap var6 (nthAddrRange var2 (+ (* 2 var3) (* (- 1) 1))) (O_Int var0)) var5 var4 var3 var2 var1 var0))))
(assert (forall ((var0 Int) (var1 Int) (var2 AddrRange) (var3 Int) (var4 Int) (var5 Int) (var6 Heap)) (or (not (and (and (inv_main41 var6 var5 var4 var3 var2 var1 var0) (is-O_Int (readHeap var6 (nthAddrRange var2 (+ (* 2 var3) (* (- 1) 1)))))) (is-O_Int (readHeap var6 (nthAddrRange var2 (+ (* 2 var3) (* (- 1) 1))))))) (inv_main39 (writeHeap var6 (nthAddrRange var2 (+ (* 2 var3) (* (- 1) 1))) (O_Int 0)) var5 var4 var3 var2 var1 var0))))
(assert (forall ((var0 Int) (var1 Int) (var2 AddrRange) (var3 Int) (var4 Int) (var5 Int) (var6 Heap) (var7 Int)) (or (not (and (and (and (and (and (and (inv_main26 var6 var5 var4 var3 var2 var1 var0) (<= 0 (+ var7 (* (- 1) var3)))) (or (not (<= 0 (+ (* (- 1) (+ var5 (* (- 2) var7))) (* (- 1) 1)))) (<= 0 (+ (* (- 1) var5) (* (- 1) 1))))) (or (not (<= 0 (+ (+ (* (- 2) var7) var5) (* (- 1) 1)))) (<= 0 (+ var5 (* (- 1) 1))))) (<= 0 (+ (+ (* 1 (+ var5 (* (- 2) var7))) 2) (* (- 1) 1)))) (<= 0 (+ (+ (* (- 1) (+ var5 (* (- 2) var7))) 2) (* (- 1) 1)))) (not (<= 0 (+ var1 (* (- 1) var4)))))) (inv_main32 var6 var5 var4 var3 var2 var1 var0))))
(assert (forall ((var0 Int) (var1 Int) (var2 AddrRange) (var3 Int) (var4 Int) (var5 Int) (var6 Heap) (var7 Int)) (or (not (and (and (and (and (and (and (inv_main35 var6 var5 var4 var3 var2 var1 var0) (<= 0 (+ var7 (* (- 1) var3)))) (or (not (<= 0 (+ (* (- 1) (+ var5 (* (- 2) var7))) (* (- 1) 1)))) (<= 0 (+ (* (- 1) var5) (* (- 1) 1))))) (or (not (<= 0 (+ (+ (* (- 2) var7) var5) (* (- 1) 1)))) (<= 0 (+ var5 (* (- 1) 1))))) (<= 0 (+ (+ (* 1 (+ var5 (* (- 2) var7))) 2) (* (- 1) 1)))) (<= 0 (+ (+ (* (- 1) (+ var5 (* (- 2) var7))) 2) (* (- 1) 1)))) (<= 0 (+ var0 (* (- 1) var4))))) (inv_main40 var6 var5 var4 var3 var2 var1 var0))))
(assert (forall ((var0 Int) (var1 Int) (var2 AddrRange) (var3 Int) (var4 Int) (var5 Int) (var6 Heap) (var7 Int)) (or (not (and (inv_main26 var6 var5 var4 var3 var2 var1 var0) (not (or (not (and (and (and (or (not (<= 0 (+ (+ (* (- 2) var7) var5) (* (- 1) 1)))) (<= 0 (+ var5 (* (- 1) 1)))) (<= 0 (+ (+ (* 1 (+ var5 (* (- 2) var7))) 2) (* (- 1) 1)))) (<= 0 (+ (+ (* (- 1) (+ var5 (* (- 2) var7))) 2) (* (- 1) 1)))) (or (not (<= 0 (+ (* (- 1) (+ var5 (* (- 2) var7))) (* (- 1) 1)))) (<= 0 (+ (* (- 1) var5) (* (- 1) 1)))))) (<= 0 (+ var7 (* (- 1) var3))))))) (inv_main35 var6 var5 var4 1 var2 var1 var0))))
(assert (forall ((var0 Int) (var1 Int) (var2 AddrRange) (var3 Int) (var4 Int) (var5 Int) (var6 Heap) (var7 Int) (var8 Int) (var9 Int) (var10 AddrRange) (var11 Int) (var12 Int) (var13 Int) (var14 Heap)) (or (not (and (and (and (and (and (and (and (and (and (inv_main42 var14 var13 var12 var11 var10 var9 var8 var7) (= var0 var8)) (= var1 var9)) (= var2 var10)) (= var3 var11)) (= var4 var12)) (= var5 var13)) (= var6 (writeHeap var14 (nthAddrRange var10 (+ (* 2 var11) (* (- 1) 2))) (O_Int var7)))) (is-O_Int (readHeap var14 (nthAddrRange var10 (+ (* 2 var11) (* (- 1) 2)))))) (is-O_Int (readHeap var14 (nthAddrRange var10 (+ (* 2 var11) (* (- 1) 2))))))) (inv_main35 var6 var5 var4 (+ var3 1) var2 var1 var0))))
(assert (forall ((var0 Int) (var1 Int) (var2 AddrRange) (var3 Int) (var4 Int) (var5 Int) (var6 Heap) (var7 Int) (var8 Int) (var9 Int) (var10 AddrRange) (var11 Int) (var12 Int) (var13 Int) (var14 Heap)) (or (not (and (and (and (and (and (and (and (and (and (inv_main33 var14 var13 var12 var11 var10 var9 var8 var7) (= var0 var8)) (= var1 var9)) (= var2 var10)) (= var3 var11)) (= var4 var12)) (= var5 var13)) (= var6 (writeHeap var14 (nthAddrRange var10 (+ (* 2 var11) (* (- 1) 1))) (O_Int var7)))) (is-O_Int (readHeap var14 (nthAddrRange var10 (+ (* 2 var11) (* (- 1) 1)))))) (is-O_Int (readHeap var14 (nthAddrRange var10 (+ (* 2 var11) (* (- 1) 1))))))) (inv_main26 var6 var5 var4 (+ var3 1) var2 var1 var0))))
(assert (forall ((var0 Int) (var1 Int) (var2 Int) (var3 Int) (var4 Int) (var5 AddrRange) (var6 AddrRange) (var7 Int) (var8 Int) (var9 Int) (var10 Int) (var11 Int) (var12 Int) (var13 Heap) (var14 Heap) (var15 Int) (var16 Int) (var17 Heap) (var18 Int) (var19 Int) (var20 Int) (var21 Int) (var22 Int) (var23 Int)) (or (not (and (batchAllocHeapPostHeap emptyHeap var13 (O_Int var2) var1) (and (and (and (and (and (and (and (and (and (and (and (and (and (and (and (and (and (and (and (and (and (inv_main2 var17 var16) (<= 0 (+ (+ (* (- 1) 1) var1) (* (- 1) 1)))) (= var5 (AddrRange (ite (<= 0 (+ var1 (- 1))) (+ (HeapSize emptyHeap) 1) (HeapSize emptyHeap)) var1))) (= var7 var0)) (= var9 2)) (= var11 var1)) true) (= var22 0)) (= var11 (+ (* 2 var23) var22))) (or (not (<= 0 (+ (* (- 1) var22) (* (- 1) 1)))) (<= 0 (+ (* (- 1) var11) (* (- 1) 1))))) (or (not (<= 0 (+ var22 (* (- 1) 1)))) (<= 0 (+ var11 (* (- 1) 1))))) (<= 0 (+ (+ (* 1 var22) 2) (* (- 1) 1)))) (<= 0 (+ (+ (* (- 1) var22) 2) (* (- 1) 1)))) (or (and (and (and (and (and (and (= var18 0) (= var11 (+ (* 2 var19) var18))) (or (not (<= 0 (+ (* (- 1) var18) (* (- 1) 1)))) (<= 0 (+ (* (- 1) var11) (* (- 1) 1))))) (or (not (<= 0 (+ var18 (* (- 1) 1)))) (<= 0 (+ var11 (* (- 1) 1))))) (<= 0 (+ (+ (* 1 var18) 2) (* (- 1) 1)))) (<= 0 (+ (+ (* (- 1) var18) 2) (* (- 1) 1)))) (= var15 1)) (and (not (or (not (and (and (and (and (or (not (<= 0 (+ (* (- 1) var20) (* (- 1) 1)))) (<= 0 (+ (* (- 1) var11) (* (- 1) 1)))) (or (not (<= 0 (+ var20 (* (- 1) 1)))) (<= 0 (+ var11 (* (- 1) 1))))) (<= 0 (+ (+ (* 1 var20) 2) (* (- 1) 1)))) (<= 0 (+ (+ (* (- 1) var20) 2) (* (- 1) 1)))) (= var11 (+ (* 2 var21) var20)))) (= var20 0))) (= var15 0)))) (= var3 1)) (= var4 3)) (= var6 var5)) (= var8 var7)) (= var10 var9)) (= var12 var11)) (= var14 var13)) (not (= var15 0))))) (inv_main26 var14 var12 var10 1 var6 var4 var3))))
(assert (forall ((var0 Int) (var1 Int) (var2 Int) (var3 Int) (var4 Int) (var5 AddrRange) (var6 AddrRange) (var7 Int) (var8 Int) (var9 Int) (var10 Int) (var11 Int) (var12 Int) (var13 Heap) (var14 Heap) (var15 Int) (var16 Int) (var17 Heap) (var18 Int) (var19 Int) (var20 Int) (var21 Int) (var22 Int) (var23 Int)) (or (not (and (and (and (and (and (and (and (and (and (and (and (and (and (and (and (and (and (and (and (and (and (inv_main2 var17 var16) (<= 0 (+ (+ (* (- 1) 1) var1) (* (- 1) 1)))) (= var5 (AddrRange (ite (<= 0 (+ var1 (- 1))) (+ (HeapSize emptyHeap) 1) (HeapSize emptyHeap)) var1))) (= var7 var0)) (= var9 2)) (= var11 var1)) true) (= var22 0)) (= var11 (+ (* 2 var23) var22))) (or (not (<= 0 (+ (* (- 1) var22) (* (- 1) 1)))) (<= 0 (+ (* (- 1) var11) (* (- 1) 1))))) (or (not (<= 0 (+ var22 (* (- 1) 1)))) (<= 0 (+ var11 (* (- 1) 1))))) (<= 0 (+ (+ (* 1 var22) 2) (* (- 1) 1)))) (<= 0 (+ (+ (* (- 1) var22) 2) (* (- 1) 1)))) (or (and (and (and (and (and (and (= var18 0) (= var11 (+ (* 2 var19) var18))) (or (not (<= 0 (+ (* (- 1) var18) (* (- 1) 1)))) (<= 0 (+ (* (- 1) var11) (* (- 1) 1))))) (or (not (<= 0 (+ var18 (* (- 1) 1)))) (<= 0 (+ var11 (* (- 1) 1))))) (<= 0 (+ (+ (* 1 var18) 2) (* (- 1) 1)))) (<= 0 (+ (+ (* (- 1) var18) 2) (* (- 1) 1)))) (= var15 1)) (and (not (or (not (and (and (and (and (or (not (<= 0 (+ (* (- 1) var20) (* (- 1) 1)))) (<= 0 (+ (* (- 1) var11) (* (- 1) 1)))) (or (not (<= 0 (+ var20 (* (- 1) 1)))) (<= 0 (+ var11 (* (- 1) 1))))) (<= 0 (+ (+ (* 1 var20) 2) (* (- 1) 1)))) (<= 0 (+ (+ (* (- 1) var20) 2) (* (- 1) 1)))) (= var11 (+ (* 2 var21) var20)))) (= var20 0))) (= var15 0)))) (= var3 1)) (= var4 3)) (= var6 var5)) (= var8 var7)) (= var10 var9)) (= var12 var11)) (= var14 var13)) (not (= var15 0)))) (batchAllocHeap emptyHeap emptyHeap (O_Int var2) var1 var1))))
(assert (forall ((var0 Int) (var1 Int) (var2 AddrRange) (var3 Int) (var4 Int) (var5 Int) (var6 Heap) (var7 Int)) (or (not (and (and (and (and (and (and (inv_main35 var6 var5 var4 var3 var2 var1 var0) (<= 0 (+ var7 (* (- 1) var3)))) (or (not (<= 0 (+ (* (- 1) (+ var5 (* (- 2) var7))) (* (- 1) 1)))) (<= 0 (+ (* (- 1) var5) (* (- 1) 1))))) (or (not (<= 0 (+ (+ (* (- 2) var7) var5) (* (- 1) 1)))) (<= 0 (+ var5 (* (- 1) 1))))) (<= 0 (+ (+ (* 1 (+ var5 (* (- 2) var7))) 2) (* (- 1) 1)))) (<= 0 (+ (+ (* (- 1) (+ var5 (* (- 2) var7))) 2) (* (- 1) 1)))) (not (<= 0 (+ var0 (* (- 1) var4)))))) (inv_main41 var6 var5 var4 var3 var2 var1 var0))))
(assert (forall ((var0 Int) (var1 Int) (var2 Int) (var3 AddrRange) (var4 Int) (var5 Int) (var6 Int) (var7 Heap) (var8 Int) (var9 Int) (var10 AddrRange) (var11 Int) (var12 Int) (var13 Int) (var14 Heap)) (or (not (and (and (and (and (and (and (and (and (and (and (and (inv_main44 var14 var13 var12 var11 var10 var9 var8) (or (and (= (getInt (readHeap var14 (nthAddrRange var10 var11))) 0) (= var0 1)) (and (not (= (getInt (readHeap var14 (nthAddrRange var10 var11))) 0)) (= var0 0)))) (= var1 var8)) (= var2 var9)) (= var3 var10)) (= var4 var11)) (= var5 var12)) (= var6 var13)) (= var7 var14)) (is-O_Int (readHeap var14 (nthAddrRange var10 var11)))) (not (<= 0 (+ (getInt (readHeap var14 (nthAddrRange var10 var11))) (* (- 1) var12))))) (is-O_Int (readHeap var14 (nthAddrRange var10 var11))))) (inv_main47 var7 var6 var5 var4 var3 var2 var1 var0))))
(assert (forall ((var0 Int) (var1 Int) (var2 AddrRange) (var3 Int) (var4 Int) (var5 Int) (var6 Heap)) (or (not (and (and (inv_main44 var6 var5 var4 var3 var2 var1 var0) (<= 0 (+ (getInt (readHeap var6 (nthAddrRange var2 var3))) (* (- 1) var4)))) (is-O_Int (readHeap var6 (nthAddrRange var2 var3))))) (inv_main47 var6 var5 var4 var3 var2 var1 var0 1))))
(assert (forall ((var0 Int) (var1 Int) (var2 AddrRange) (var3 Int) (var4 Int) (var5 Int) (var6 Heap)) (or (not (and (and (inv_main31 var6 var5 var4 var3 var2 var1 var0) (is-O_Int (readHeap var6 (nthAddrRange var2 (+ (* 2 var3) (* (- 1) 2)))))) (is-O_Int (readHeap var6 (nthAddrRange var2 (+ (* 2 var3) (* (- 1) 2))))))) (inv_main30 (writeHeap var6 (nthAddrRange var2 (+ (* 2 var3) (* (- 1) 2))) (O_Int var1)) var5 var4 var3 var2 var1 var0))))
(assert (forall ((var0 Int) (var1 Int) (var2 AddrRange) (var3 Int) (var4 Int) (var5 Int) (var6 Heap)) (or (not (and (and (inv_main32 var6 var5 var4 var3 var2 var1 var0) (is-O_Int (readHeap var6 (nthAddrRange var2 (+ (* 2 var3) (* (- 1) 2)))))) (is-O_Int (readHeap var6 (nthAddrRange var2 (+ (* 2 var3) (* (- 1) 2))))))) (inv_main30 (writeHeap var6 (nthAddrRange var2 (+ (* 2 var3) (* (- 1) 2))) (O_Int 0)) var5 var4 var3 var2 var1 var0))))
(assert (forall ((var0 Int) (var1 Int) (var2 AddrRange) (var3 Int) (var4 Int) (var5 Int) (var6 Heap) (var7 Int)) (or (not (and (and (inv_main35 var6 var5 var4 var3 var2 var1 var0) (not (or (not (and (and (and (or (not (<= 0 (+ (+ (* (- 2) var7) var5) (* (- 1) 1)))) (<= 0 (+ var5 (* (- 1) 1)))) (<= 0 (+ (+ (* 1 (+ var5 (* (- 2) var7))) 2) (* (- 1) 1)))) (<= 0 (+ (+ (* (- 1) (+ var5 (* (- 2) var7))) 2) (* (- 1) 1)))) (or (not (<= 0 (+ (* (- 1) (+ var5 (* (- 2) var7))) (* (- 1) 1)))) (<= 0 (+ (* (- 1) var5) (* (- 1) 1)))))) (<= 0 (+ var7 (* (- 1) var3)))))) (<= 0 (+ var5 (* (- 1) 1))))) (inv_main44 var6 var5 var4 0 var2 var1 var0))))
(assert (forall ((var0 Int) (var1 Int) (var2 Int) (var3 AddrRange) (var4 Int) (var5 Int) (var6 Int) (var7 Heap)) (or (not (and (inv_main47 var7 var6 var5 var4 var3 var2 var1 var0) (<= 0 (+ (+ (* (- 1) (+ var4 1)) var6) (* (- 1) 1))))) (inv_main44 var7 var6 var5 (+ var4 1) var3 var2 var1))))
(assert (forall ((var0 Int) (var1 Int) (var2 AddrRange) (var3 Int) (var4 Int) (var5 Int) (var6 Heap)) (not (and (inv_main31 var6 var5 var4 var3 var2 var1 var0) (not (is-O_Int (readHeap var6 (nthAddrRange var2 (+ (* 2 var3) (* (- 1) 2))))))))))
(assert (forall ((var0 Int) (var1 Int) (var2 AddrRange) (var3 Int) (var4 Int) (var5 Int) (var6 Heap)) (not (and (and (inv_main31 var6 var5 var4 var3 var2 var1 var0) (not (withinHeap var2 (nthAddrRange var2 (+ (* 2 var3) (* (- 1) 2)))))) (is-O_Int (readHeap var6 (nthAddrRange var2 (+ (* 2 var3) (* (- 1) 2)))))))))
(assert (forall ((var0 Int) (var1 Int) (var2 AddrRange) (var3 Int) (var4 Int) (var5 Int) (var6 Heap)) (not (and (and (inv_main31 var6 var5 var4 var3 var2 var1 var0) (not (is-O_Int (readHeap var6 (nthAddrRange var2 (+ (* 2 var3) (* (- 1) 2))))))) (is-O_Int (readHeap var6 (nthAddrRange var2 (+ (* 2 var3) (* (- 1) 2)))))))))
(assert (forall ((var0 Int) (var1 Int) (var2 AddrRange) (var3 Int) (var4 Int) (var5 Int) (var6 Heap)) (not (and (inv_main32 var6 var5 var4 var3 var2 var1 var0) (not (is-O_Int (readHeap var6 (nthAddrRange var2 (+ (* 2 var3) (* (- 1) 2))))))))))
(assert (forall ((var0 Int) (var1 Int) (var2 AddrRange) (var3 Int) (var4 Int) (var5 Int) (var6 Heap)) (not (and (and (inv_main32 var6 var5 var4 var3 var2 var1 var0) (not (withinHeap var2 (nthAddrRange var2 (+ (* 2 var3) (* (- 1) 2)))))) (is-O_Int (readHeap var6 (nthAddrRange var2 (+ (* 2 var3) (* (- 1) 2)))))))))
(assert (forall ((var0 Int) (var1 Int) (var2 AddrRange) (var3 Int) (var4 Int) (var5 Int) (var6 Heap)) (not (and (and (inv_main32 var6 var5 var4 var3 var2 var1 var0) (not (is-O_Int (readHeap var6 (nthAddrRange var2 (+ (* 2 var3) (* (- 1) 2))))))) (is-O_Int (readHeap var6 (nthAddrRange var2 (+ (* 2 var3) (* (- 1) 2)))))))))
(assert (forall ((var0 Int) (var1 Int) (var2 AddrRange) (var3 Int) (var4 Int) (var5 Int) (var6 Heap)) (not (and (inv_main30 var6 var5 var4 var3 var2 var1 var0) (not (is-O_Int (readHeap var6 (nthAddrRange var2 (+ (* 2 var3) (* (- 1) 1))))))))))
(assert (forall ((var0 Int) (var1 Int) (var2 AddrRange) (var3 Int) (var4 Int) (var5 Int) (var6 Heap)) (not (and (and (inv_main30 var6 var5 var4 var3 var2 var1 var0) (not (withinHeap var2 (nthAddrRange var2 (+ (* 2 var3) (* (- 1) 1)))))) (is-O_Int (readHeap var6 (nthAddrRange var2 (+ (* 2 var3) (* (- 1) 1)))))))))
(assert (forall ((var0 Int) (var1 Int) (var2 Int) (var3 AddrRange) (var4 Int) (var5 Int) (var6 Int) (var7 Heap)) (not (and (inv_main33 var7 var6 var5 var4 var3 var2 var1 var0) (not (is-O_Int (readHeap var7 (nthAddrRange var3 (+ (* 2 var4) (* (- 1) 1))))))))))
(assert (forall ((var0 Int) (var1 Int) (var2 Int) (var3 AddrRange) (var4 Int) (var5 Int) (var6 Int) (var7 Heap)) (not (and (and (inv_main33 var7 var6 var5 var4 var3 var2 var1 var0) (not (withinHeap var3 (nthAddrRange var3 (+ (* 2 var4) (* (- 1) 1)))))) (is-O_Int (readHeap var7 (nthAddrRange var3 (+ (* 2 var4) (* (- 1) 1)))))))))
(assert (forall ((var0 Int) (var1 Int) (var2 Int) (var3 AddrRange) (var4 Int) (var5 Int) (var6 Int) (var7 Heap)) (not (and (and (inv_main33 var7 var6 var5 var4 var3 var2 var1 var0) (not (is-O_Int (readHeap var7 (nthAddrRange var3 (+ (* 2 var4) (* (- 1) 1))))))) (is-O_Int (readHeap var7 (nthAddrRange var3 (+ (* 2 var4) (* (- 1) 1)))))))))
(assert (forall ((var0 Int) (var1 Int) (var2 AddrRange) (var3 Int) (var4 Int) (var5 Int) (var6 Heap)) (not (and (inv_main40 var6 var5 var4 var3 var2 var1 var0) (not (is-O_Int (readHeap var6 (nthAddrRange var2 (+ (* 2 var3) (* (- 1) 1))))))))))
(assert (forall ((var0 Int) (var1 Int) (var2 AddrRange) (var3 Int) (var4 Int) (var5 Int) (var6 Heap)) (not (and (and (inv_main40 var6 var5 var4 var3 var2 var1 var0) (not (withinHeap var2 (nthAddrRange var2 (+ (* 2 var3) (* (- 1) 1)))))) (is-O_Int (readHeap var6 (nthAddrRange var2 (+ (* 2 var3) (* (- 1) 1)))))))))
(assert (forall ((var0 Int) (var1 Int) (var2 AddrRange) (var3 Int) (var4 Int) (var5 Int) (var6 Heap)) (not (and (and (inv_main40 var6 var5 var4 var3 var2 var1 var0) (not (is-O_Int (readHeap var6 (nthAddrRange var2 (+ (* 2 var3) (* (- 1) 1))))))) (is-O_Int (readHeap var6 (nthAddrRange var2 (+ (* 2 var3) (* (- 1) 1)))))))))
(assert (forall ((var0 Int) (var1 Int) (var2 AddrRange) (var3 Int) (var4 Int) (var5 Int) (var6 Heap)) (not (and (inv_main41 var6 var5 var4 var3 var2 var1 var0) (not (is-O_Int (readHeap var6 (nthAddrRange var2 (+ (* 2 var3) (* (- 1) 1))))))))))
(assert (forall ((var0 Int) (var1 Int) (var2 AddrRange) (var3 Int) (var4 Int) (var5 Int) (var6 Heap)) (not (and (and (inv_main41 var6 var5 var4 var3 var2 var1 var0) (not (withinHeap var2 (nthAddrRange var2 (+ (* 2 var3) (* (- 1) 1)))))) (is-O_Int (readHeap var6 (nthAddrRange var2 (+ (* 2 var3) (* (- 1) 1)))))))))
(assert (forall ((var0 Int) (var1 Int) (var2 AddrRange) (var3 Int) (var4 Int) (var5 Int) (var6 Heap)) (not (and (and (inv_main41 var6 var5 var4 var3 var2 var1 var0) (not (is-O_Int (readHeap var6 (nthAddrRange var2 (+ (* 2 var3) (* (- 1) 1))))))) (is-O_Int (readHeap var6 (nthAddrRange var2 (+ (* 2 var3) (* (- 1) 1)))))))))
(assert (forall ((var0 Int) (var1 Int) (var2 AddrRange) (var3 Int) (var4 Int) (var5 Int) (var6 Heap)) (not (and (inv_main39 var6 var5 var4 var3 var2 var1 var0) (not (is-O_Int (readHeap var6 (nthAddrRange var2 (+ (* 2 var3) (* (- 1) 2))))))))))
(assert (forall ((var0 Int) (var1 Int) (var2 AddrRange) (var3 Int) (var4 Int) (var5 Int) (var6 Heap)) (not (and (and (inv_main39 var6 var5 var4 var3 var2 var1 var0) (not (withinHeap var2 (nthAddrRange var2 (+ (* 2 var3) (* (- 1) 2)))))) (is-O_Int (readHeap var6 (nthAddrRange var2 (+ (* 2 var3) (* (- 1) 2)))))))))
(assert (forall ((var0 Int) (var1 Int) (var2 Int) (var3 AddrRange) (var4 Int) (var5 Int) (var6 Int) (var7 Heap)) (not (and (inv_main42 var7 var6 var5 var4 var3 var2 var1 var0) (not (is-O_Int (readHeap var7 (nthAddrRange var3 (+ (* 2 var4) (* (- 1) 2))))))))))
(assert (forall ((var0 Int) (var1 Int) (var2 Int) (var3 AddrRange) (var4 Int) (var5 Int) (var6 Int) (var7 Heap)) (not (and (and (inv_main42 var7 var6 var5 var4 var3 var2 var1 var0) (not (withinHeap var3 (nthAddrRange var3 (+ (* 2 var4) (* (- 1) 2)))))) (is-O_Int (readHeap var7 (nthAddrRange var3 (+ (* 2 var4) (* (- 1) 2)))))))))
(assert (forall ((var0 Int) (var1 Int) (var2 Int) (var3 AddrRange) (var4 Int) (var5 Int) (var6 Int) (var7 Heap)) (not (and (and (inv_main42 var7 var6 var5 var4 var3 var2 var1 var0) (not (is-O_Int (readHeap var7 (nthAddrRange var3 (+ (* 2 var4) (* (- 1) 2))))))) (is-O_Int (readHeap var7 (nthAddrRange var3 (+ (* 2 var4) (* (- 1) 2)))))))))
(assert (forall ((var0 Int) (var1 Int) (var2 AddrRange) (var3 Int) (var4 Int) (var5 Int) (var6 Heap)) (not (and (inv_main44 var6 var5 var4 var3 var2 var1 var0) (not (is-O_Int (readHeap var6 (nthAddrRange var2 var3))))))))
(assert (forall ((var0 Int) (var1 Int) (var2 AddrRange) (var3 Int) (var4 Int) (var5 Int) (var6 Heap)) (not (and (inv_main44 var6 var5 var4 var3 var2 var1 var0) (not (withinHeap var2 (nthAddrRange var2 var3)))))))
(assert (forall ((var0 Int) (var1 Int) (var2 AddrRange) (var3 Int) (var4 Int) (var5 Int) (var6 Heap)) (not (and (inv_main44 var6 var5 var4 var3 var2 var1 var0) (not (is-O_Int (readHeap var6 (nthAddrRange var2 var3))))))))
(assert (forall ((var0 Int) (var1 Int) (var2 AddrRange) (var3 Int) (var4 Int) (var5 Int) (var6 Heap)) (not (and (inv_main44 var6 var5 var4 var3 var2 var1 var0) (not (withinHeap var2 (nthAddrRange var2 var3)))))))
(assert (forall ((var0 Int) (var1 Int) (var2 AddrRange) (var3 Int) (var4 Int) (var5 Int) (var6 Heap)) (not (and (inv_main44 var6 var5 var4 var3 var2 var1 var0) (not (is-O_Int (readHeap var6 (nthAddrRange var2 var3))))))))
(assert (forall ((var0 Int) (var1 Int) (var2 AddrRange) (var3 Int) (var4 Int) (var5 Int) (var6 Heap)) (not (and (and (inv_main44 var6 var5 var4 var3 var2 var1 var0) (not (withinHeap var2 (nthAddrRange var2 var3)))) (is-O_Int (readHeap var6 (nthAddrRange var2 var3)))))))
(assert (forall ((var0 Int) (var1 Int) (var2 AddrRange) (var3 Int) (var4 Int) (var5 Int) (var6 Heap)) (not (and (and (and (inv_main44 var6 var5 var4 var3 var2 var1 var0) (not (is-O_Int (readHeap var6 (nthAddrRange var2 var3))))) (not (<= 0 (+ (getInt (readHeap var6 (nthAddrRange var2 var3))) (* (- 1) var4))))) (is-O_Int (readHeap var6 (nthAddrRange var2 var3)))))))
(assert (forall ((var0 Int) (var1 Int) (var2 AddrRange) (var3 Int) (var4 Int) (var5 Int) (var6 Heap)) (not (and (and (and (and (inv_main44 var6 var5 var4 var3 var2 var1 var0) (not (withinHeap var2 (nthAddrRange var2 var3)))) (is-O_Int (readHeap var6 (nthAddrRange var2 var3)))) (not (<= 0 (+ (getInt (readHeap var6 (nthAddrRange var2 var3))) (* (- 1) var4))))) (is-O_Int (readHeap var6 (nthAddrRange var2 var3)))))))
(assert (forall ((var0 Int) (var1 Int) (var2 Int) (var3 AddrRange) (var4 Int) (var5 Int) (var6 Int) (var7 Heap)) (not (and (inv_main47 var7 var6 var5 var4 var3 var2 var1 var0) (= var0 0)))))
(check-sat)
